cases/matpower/case5_clm.m
ipopt
DCP
[info | PowerModels]: extending matpower format with data: branch_currents 7x2
[info | PowerModels]: extending matpower format by appending matrix "branch_currents" in to "branch"
[warn | PowerModels]: the voltage setpoint on generator 4 does not match the value at bus 4
[warn | PowerModels]: the voltage setpoint on generator 1 does not match the value at bus 1
[warn | PowerModels]: the voltage setpoint on generator 5 does not match the value at bus 10
[warn | PowerModels]: the voltage setpoint on generator 2 does not match the value at bus 1
[warn | PowerModels]: the voltage setpoint on generator 3 does not match the value at bus 3
[info | PowerModels]: removing 1 cost terms from generator 4: [4000.0, 0.0]
[info | PowerModels]: removing 1 cost terms from generator 1: [1400.0, 0.0]
[info | PowerModels]: removing 1 cost terms from generator 5: [1000.0, 0.0]
[info | PowerModels]: removing 1 cost terms from generator 2: [1500.0, 0.0]
[info | PowerModels]: removing 1 cost terms from generator 3: [3000.0, 0.0]

******************************************************************************
This program contains Ipopt, a library for large-scale nonlinear optimization.
 Ipopt is released as open source code under the Eclipse Public License (EPL).
         For more information visit http://projects.coin-or.org/Ipopt
******************************************************************************

This is Ipopt version 3.13.2, running with linear solver mumps.
NOTE: Other linear solvers might be more efficient (see Ipopt documentation).

Number of nonzeros in equality constraint Jacobian...:       41
Number of nonzeros in inequality constraint Jacobian.:       24
Number of nonzeros in Lagrangian Hessian.............:        0

Total number of variables............................:       17
                     variables with only lower bounds:        0
                variables with lower and upper bounds:       12
                     variables with only upper bounds:        0
Total number of equality constraints.................:       13
Total number of inequality constraints...............:       12
        inequality constraints with only lower bounds:        6
   inequality constraints with lower and upper bounds:        0
        inequality constraints with only upper bounds:        6

iter    objective    inf_pr   inf_du lg(mu)  ||d||  lg(rg) alpha_du alpha_pr  ls
   0  1.0059989e+02 3.99e+00 3.49e+01  -1.0 0.00e+00    -  0.00e+00 0.00e+00   0
   1  8.1105369e+03 2.49e+00 1.05e+02  -1.0 2.61e+00    -  3.99e-03 3.77e-01h  1
   2  5.2113766e+03 2.43e+00 1.03e+02  -1.0 5.65e+01    -  2.04e-02 2.06e-02f  1
   3  4.7359294e+03 2.40e+00 1.00e+02  -1.0 2.53e+01    -  1.98e-01 1.38e-02f  1
   4  7.1067671e+03 1.31e+00 5.50e+01  -1.0 7.61e+00    -  2.74e-01 4.56e-01h  1
   5  7.8081766e+03 1.12e+00 4.68e+01  -1.0 3.17e+00    -  1.72e-01 1.45e-01h  1
   6  7.8214494e+03 1.11e+00 5.06e+01  -1.0 4.12e+00    -  1.44e-02 2.49e-03h  1
   7  8.4848500e+03 1.01e+00 4.54e+01  -1.0 9.22e+00    -  5.87e-03 8.89e-02h  1
   8  8.4926950e+03 1.01e+00 4.54e+01  -1.0 7.09e+00    -  4.47e-02 1.16e-03h  1
   9  1.2200769e+04 5.34e-01 3.27e+01  -1.0 2.63e+00    -  4.22e-03 4.73e-01h  1
iter    objective    inf_pr   inf_du lg(mu)  ||d||  lg(rg) alpha_du alpha_pr  ls
  10  1.6335756e+04 1.78e-15 5.19e+00  -1.0 1.42e+00    -  9.19e-01 1.00e+00h  1
  11  1.6332977e+04 8.88e-16 1.00e-06  -1.0 1.13e-02    -  1.00e+00 1.00e+00f  1
  12  1.6318375e+04 8.88e-16 6.92e-03  -2.5 3.03e-02    -  9.85e-01 1.00e+00f  1
  13  1.6317536e+04 8.88e-16 1.50e-09  -3.8 2.57e-03    -  1.00e+00 1.00e+00f  1
  14  1.6317512e+04 3.55e-15 1.84e-11  -5.7 5.25e-05    -  1.00e+00 1.00e+00f  1
  15  1.6317512e+04 3.55e-15 1.81e-13  -8.6 6.48e-07    -  1.00e+00 1.00e+00f  1

Number of Iterations....: 15

                                   (scaled)                 (unscaled)
Objective...............:   4.0793779251690563e+02    1.6317511700676225e+04
Dual infeasibility......:   1.8109325718412405e-13    7.2437302873649620e-12
Constraint violation....:   2.2964741219766437e-15    3.5527136788005009e-15
Complementarity.........:   2.5079576632184249e-09    1.0031830652873699e-07
Overall NLP error.......:   2.5079576632184249e-09    1.0031830652873699e-07


Number of objective function evaluations             = 16
Number of objective gradient evaluations             = 16
Number of equality constraint evaluations            = 16
Number of inequality constraint evaluations          = 16
Number of equality constraint Jacobian evaluations   = 1
Number of inequality constraint Jacobian evaluations = 1
Number of Lagrangian Hessian evaluations             = 1
Total CPU secs in IPOPT (w/o function evaluations)   =      0.248
Total CPU secs in NLP function evaluations           =      0.208

EXIT: Optimal Solution Found.
Time to Solution........:1.1318550109863281
